g3 3 1 0	# problem myampl
 285 109 1 0 62	# vars, constraints, objectives, ranges, eqns
 0 1	# nonlinear constraints, objectives
 0 0	# network constraints: nonlinear, linear
 0 84 0	# nonlinear vars in constraints, objectives, both
 0 0 0 1	# linear network variables; functions; arith, flags
 0 201 0 0 84	# discrete variables: binary, integer, nonlinear (b,c,o)
 1114 272	# nonzeros in Jacobian, gradients
 0 0	# max name lengths: constraints, variables
 0 0 0 0 0	# common exprs: b,c,o,c1,o1
b
2 0
2 0
2 0
2 0
2 0
2 0
2 0
2 0
2 0
2 0
2 0
2 0
2 0
2 0
2 0
2 0
2 0
2 0
2 0
2 0
2 0
2 0
2 0
2 0
2 0
2 0
2 0
2 0
2 0
2 0
2 0
2 0
2 0
2 0
2 0
2 0
2 0
2 0
2 0
2 0
2 0
2 0
2 0
2 0
2 0
2 0
2 0
2 0
2 0
2 0
2 0
2 0
2 0
2 0
2 0
2 0
2 0
2 0
2 0
2 0
2 0
2 0
2 0
2 0
2 0
2 0
2 0
2 0
2 0
2 0
2 0
2 0
2 0
2 0
2 0
2 0
2 0
2 0
2 0
2 0
2 0
2 0
2 0
2 0
0 0 7
0 0 6
0 0 7
0 0 6
0 0 7
0 0 6
0 0 7
0 0 6
0 0 7
0 0 6
0 0 7
0 0 6
0 0 7
0 0 6
0 0 3
0 0 4
0 0 3
0 0 4
0 0 3
0 0 4
0 0 3
0 0 4
0 0 3
0 0 4
0 0 3
0 0 4
0 0 3
0 0 4
0 0 4
0 0 13
0 0 4
0 0 13
0 0 4
0 0 13
0 0 4
0 0 13
0 0 4
0 0 9
0 0 4
0 0 13
0 0 4
0 0 13
0 0 5
0 0 2
0 0 5
0 0 2
0 0 5
0 0 2
0 0 5
0 0 2
0 0 5
0 0 2
0 0 5
0 0 2
0 0 5
0 0 2
0 0 9
0 0 3
0 0 9
0 0 3
0 0 9
0 0 3
0 0 9
0 0 3
0 0 9
0 0 3
0 0 9
0 0 3
0 0 9
0 0 3
0 0 18
0 0 12
0 0 22
0 0 12
0 0 18
0 0 12
0 0 13
0 0 12
0 0 9
0 0 9
0 0 13
0 0 12
0 0 15
0 0 12
0 0 18
0 0 18
0 0 18
0 0 18
0 0 18
0 0 18
0 0 18
0 0 18
0 0 24
0 0 24
0 0 24
0 0 24
0 0 21
0 0 21
0 0 22
0 0 22
0 0 18
0 0 18
0 0 18
0 0 18
0 0 18
0 0 18
0 0 18
0 0 18
0 0 13
0 0 13
0 0 13
0 0 13
0 0 13
0 0 13
0 0 13
0 0 13
0 0 9
0 0 9
0 0 9
0 0 9
0 0 9
0 0 9
0 0 9
0 0 9
0 0 13
0 0 13
0 0 13
0 0 13
0 0 13
0 0 13
0 0 13
0 0 13
0 0 15
0 0 15
0 0 15
0 0 15
0 0 15
0 0 15
0 0 15
0 0 15
0 0 19
0 0 19
0 0 17
0 0 17
0 0 10
0 0 10
0 0 10
0 0 10
0 0 12
0 0 12
0 0 28
0 0 28
0 0 19
0 0 19
0 0 17
0 0 17
0 0 10
0 0 10
0 0 10
0 0 10
0 0 12
0 0 12
0 0 33
0 0 33
0 0 19
0 0 19
0 0 17
0 0 17
0 0 10
0 0 10
0 0 10
0 0 10
0 0 12
0 0 12
0 0 21
0 0 21
0 0 19
0 0 19
0 0 17
0 0 17
0 0 10
0 0 10
0 0 10
0 0 10
0 0 12
0 0 12
0 0 22
0 0 22
0 0 7
0 0 3
0 0 4
0 0 5
0 0 9
0 0 10
0 0 7
0 0 5
0 0 8
0 0 9
0 0 11
0 0 10
0 0 10
x285
0 0
1 0
2 0
3 0
4 0
5 0
6 0
7 0
8 1
9 3
10 0
11 0
12 8
13 7
14 0
15 0
16 5
17 2
18 0
19 0
20 5
21 5
22 0
23 0
24 0
25 0
26 0
27 0
28 0
29 0
30 0
31 0
32 4
33 5
34 1
35 0
36 0
37 0
38 0
39 0
40 0
41 0
42 6
43 3
44 0
45 0
46 0
47 0
48 0
49 0
50 0
51 0
52 0
53 0
54 0
55 0
56 0
57 1
58 0
59 0
60 0
61 0
62 0
63 0
64 5
65 6
66 0
67 0
68 0
69 0
70 0
71 0
72 0
73 0
74 0
75 0
76 0
77 0
78 0
79 0
80 5
81 8
82 0
83 0
84 0
85 0
86 0
87 0
88 0
89 0
90 7
91 6
92 0
93 0
94 0
95 0
96 0
97 0
98 0
99 0
100 3
101 4
102 0
103 0
104 0
105 0
106 0
107 0
108 0
109 0
110 0
111 0
112 0
113 0
114 1
115 10
116 0
117 3
118 0
119 0
120 0
121 0
122 0
123 0
124 0
125 0
126 0
127 0
128 0
129 0
130 0
131 0
132 0
133 0
134 0
135 0
136 0
137 0
138 5
139 2
140 4
141 0
142 0
143 0
144 0
145 0
146 0
147 0
148 5
149 3
150 0
151 0
152 0
153 0
154 6
155 8
156 0
157 0
158 0
159 0
160 0
161 0
162 0
163 0
164 9
165 4
166 0
167 0
168 0
169 0
170 0
171 0
172 0
173 0
174 10
175 8
176 0
177 0
178 3
179 11
180 0
181 0
182 1
183 3
184 0
185 3
186 0
187 0
188 0
189 0
190 0
191 0
192 0
193 0
194 7
195 6
196 0
197 0
198 0
199 0
200 0
201 0
202 0
203 0
204 5
205 3
206 0
207 0
208 0
209 0
210 0
211 0
212 9
213 4
214 0
215 0
216 5
217 2
218 0
219 0
220 0
221 0
222 0
223 0
224 0
225 0
226 0
227 0
228 5
229 5
230 0
231 0
232 0
233 0
234 0
235 0
236 0
237 10
238 10
239 7
240 0
241 0
242 0
243 0
244 0
245 0
246 0
247 0
248 9
249 0
250 0
251 0
252 0
253 0
254 0
255 0
256 5
257 7
258 0
259 0
260 0
261 0
262 0
263 0
264 0
265 0
266 6
267 3
268 0
269 0
270 5
271 8
272 0
273 0
274 3
275 0
276 0
277 7
278 3
279 3
280 3
281 4
282 2
283 2
284 3
r
4 7
4 6
4 3
4 4
4 4
4 13
4 5
4 2
4 9
4 3
4 22
4 12
4 0
4 0
4 0
4 0
4 0
4 0
4 0
4 0
4 0
4 0
4 0
4 0
4 0
4 0
4 0
4 0
4 0
4 0
4 0
4 0
4 0
4 0
4 0
4 0
4 0
4 0
4 0
4 0
4 0
4 0
4 0
4 0
4 0
4 0
4 -6
4 -7
4 -5
4 -5
4 -4
4 -8
4 -6
4 -9
4 -6
4 -11
4 -5
4 -10
4 -8
4 -10
4 20
4 -10
1 18
1 24
1 18
1 13
1 9
1 13
1 15
1 28
1 33
1 21
1 22
1 19
1 17
1 10
1 10
1 12
1 43
1 13
1 10
1 12
1 15
1 17
1 15
1 18
1 13
1 7
1 17
1 7
1 12
1 34
1 18
1 24
1 18
1 13
1 9
1 13
1 15
1 28
1 33
1 21
1 22
1 19
1 17
1 10
1 10
1 12
1 43
d109
0 0
1 0
2 0
3 0
4 0
5 0
6 0
7 0
8 0
9 0
10 0
11 0
12 0
13 0
14 0
15 0
16 0
17 0
18 0
19 0
20 0
21 0
22 0
23 0
24 0
25 0
26 0
27 0
28 0
29 0
30 0
31 0
32 0
33 0
34 0
35 0
36 0
37 0
38 0
39 0
40 0
41 0
42 0
43 0
44 0
45 0
46 0
47 0
48 0
49 0
50 0
51 0
52 0
53 0
54 0
55 0
56 0
57 0
58 0
59 0
60 0
61 0
62 0
63 0
64 0
65 0
66 0
67 0
68 0
69 0
70 0
71 0
72 0
73 0
74 0
75 0
76 0
77 0
78 0
79 0
80 0
81 0
82 0
83 0
84 0
85 0
86 0
87 0
88 0
89 0
90 0
91 0
92 0
93 0
94 0
95 0
96 0
97 0
98 0
99 0
100 0
101 0
102 0
103 0
104 0
105 0
106 0
107 0
108 0
C0
n0
C1
n0
C2
n0
C3
n0
C4
n0
C5
n0
C6
n0
C7
n0
C8
n0
C9
n0
C10
n0
C11
n0
C12
n0
C13
n0
C14
n0
C15
n0
C16
n0
C17
n0
C18
n0
C19
n0
C20
n0
C21
n0
C22
n0
C23
n0
C24
n0
C25
n0
C26
n0
C27
n0
C28
n0
C29
n0
C30
n0
C31
n0
C32
n0
C33
n0
C34
n0
C35
n0
C36
n0
C37
n0
C38
n0
C39
n0
C40
n0
C41
n0
C42
n0
C43
n0
C44
n0
C45
n0
C46
n0
C47
n0
C48
n0
C49
n0
C50
n0
C51
n0
C52
n0
C53
n0
C54
n0
C55
n0
C56
n0
C57
n0
C58
n0
C59
n0
C60
n0
C61
n0
C62
n0
C63
n0
C64
n0
C65
n0
C66
n0
C67
n0
C68
n0
C69
n0
C70
n0
C71
n0
C72
n0
C73
n0
C74
n0
C75
n0
C76
n0
C77
n0
C78
n0
C79
n0
C80
n0
C81
n0
C82
n0
C83
n0
C84
n0
C85
n0
C86
n0
C87
n0
C88
n0
C89
n0
C90
n0
C91
n0
C92
n0
C93
n0
C94
n0
C95
n0
C96
n0
C97
n0
C98
n0
C99
n0
C100
n0
C101
n0
C102
n0
C103
n0
C104
n0
C105
n0
C106
n0
C107
n0
C108
n0
O0 0
o54
14
o2
n1000
o5
o16
o3
o54
6
v0
v14
v28
v42
v56
v70
n-6
n2
o2
n1000
o5
o16
o3
o54
6
v1
v15
v29
v43
v57
v71
n-7
n2
o2
n1000
o5
o16
o3
o54
6
v2
v16
v30
v44
v58
v72
n-5
n2
o2
n1000
o5
o16
o3
o54
6
v3
v17
v31
v45
v59
v73
n-5
n2
o2
n1000
o5
o16
o3
o54
6
v4
v18
v32
v46
v60
v74
n-4
n2
o2
n1000
o5
o16
o3
o54
6
v5
v19
v33
v47
v61
v75
n-8
n2
o2
n1000
o5
o16
o3
o54
6
v6
v20
v34
v48
v62
v76
n-6
n2
o2
n1000
o5
o16
o3
o54
6
v7
v21
v35
v49
v63
v77
n-9
n2
o2
n1000
o5
o16
o3
o54
6
v8
v22
v36
v50
v64
v78
n-6
n2
o2
n1000
o5
o16
o3
o54
6
v9
v23
v37
v51
v65
v79
n-11
n2
o2
n1000
o5
o16
o3
o54
6
v10
v24
v38
v52
v66
v80
n-5
n2
o2
n1000
o5
o16
o3
o54
6
v11
v25
v39
v53
v67
v81
n-10
n2
o2
n1000
o5
o16
o3
o54
6
v12
v26
v40
v54
v68
v82
n-8
n2
o2
n1000
o5
o16
o3
o54
6
v13
v27
v41
v55
v69
v83
n-10
n2
k284
4
8
12
16
20
24
28
32
36
40
44
48
52
56
60
64
68
72
76
80
84
88
92
96
100
104
108
112
116
120
124
128
132
136
140
144
148
152
156
160
164
168
172
176
180
184
188
192
196
200
204
208
212
216
220
224
228
232
236
240
244
248
252
256
260
264
268
272
276
280
284
288
292
296
300
304
308
312
316
320
324
328
332
336
340
344
348
352
356
360
364
368
372
376
380
384
388
392
396
400
404
408
412
416
420
424
428
432
436
440
444
448
452
456
460
464
468
472
476
480
484
488
492
496
500
504
508
512
516
520
524
528
532
536
540
544
548
552
556
560
564
568
572
576
580
584
588
592
596
600
604
608
612
616
620
624
628
632
636
640
644
648
652
656
660
664
668
672
676
680
684
688
692
696
700
704
708
712
716
720
724
728
732
736
740
744
748
752
756
760
764
768
772
776
780
784
788
792
796
800
804
808
812
816
820
824
828
832
836
840
844
848
852
856
860
864
868
872
876
880
884
888
892
896
900
904
908
912
916
920
924
928
932
936
940
944
948
952
956
960
964
968
972
976
980
984
988
992
996
1000
1004
1008
1012
1016
1020
1024
1028
1032
1036
1040
1044
1048
1052
1056
1060
1064
1068
1072
1076
1080
1084
1088
1090
1092
1094
1096
1098
1100
1102
1104
1106
1108
1110
1112
J0 8
84 1
86 1
88 1
90 1
92 1
94 1
96 1
272 1
J1 7
85 1
87 1
89 1
91 1
93 1
95 1
97 1
J2 8
98 1
100 1
102 1
104 1
106 1
108 1
110 1
273 1
J3 7
99 1
101 1
103 1
105 1
107 1
109 1
111 1
J4 8
112 1
114 1
116 1
118 1
120 1
122 1
124 1
274 1
J5 7
113 1
115 1
117 1
119 1
121 1
123 1
125 1
J6 8
126 1
128 1
130 1
132 1
134 1
136 1
138 1
275 1
J7 7
127 1
129 1
131 1
133 1
135 1
137 1
139 1
J8 8
140 1
142 1
144 1
146 1
148 1
150 1
152 1
276 1
J9 7
141 1
143 1
145 1
147 1
149 1
151 1
153 1
J10 8
154 1
156 1
158 1
160 1
162 1
164 1
166 1
277 1
J11 7
155 1
157 1
159 1
161 1
163 1
165 1
167 1
J12 10
84 -1
98 -1
112 -1
126 -1
140 -1
154 -1
168 1
170 1
172 1
174 1
J13 10
85 -1
99 -1
113 -1
127 -1
141 -1
155 -1
169 1
171 1
173 1
175 1
J14 10
86 -1
100 -1
114 -1
128 -1
142 -1
156 -1
176 1
178 1
180 1
182 1
J15 10
87 -1
101 -1
115 -1
129 -1
143 -1
157 -1
177 1
179 1
181 1
183 1
J16 10
88 -1
102 -1
116 -1
130 -1
144 -1
158 -1
184 1
186 1
188 1
190 1
J17 10
89 -1
103 -1
117 -1
131 -1
145 -1
159 -1
185 1
187 1
189 1
191 1
J18 10
90 -1
104 -1
118 -1
132 -1
146 -1
160 -1
192 1
194 1
196 1
198 1
J19 10
91 -1
105 -1
119 -1
133 -1
147 -1
161 -1
193 1
195 1
197 1
199 1
J20 10
92 -1
106 -1
120 -1
134 -1
148 -1
162 -1
200 1
202 1
204 1
206 1
J21 10
93 -1
107 -1
121 -1
135 -1
149 -1
163 -1
201 1
203 1
205 1
207 1
J22 10
94 -1
108 -1
122 -1
136 -1
150 -1
164 -1
208 1
210 1
212 1
214 1
J23 10
95 -1
109 -1
123 -1
137 -1
151 -1
165 -1
209 1
211 1
213 1
215 1
J24 10
96 -1
110 -1
124 -1
138 -1
152 -1
166 -1
216 1
218 1
220 1
222 1
J25 10
97 -1
111 -1
125 -1
139 -1
153 -1
167 -1
217 1
219 1
221 1
223 1
J26 13
168 -1
176 -1
184 -1
192 -1
200 -1
208 -1
216 -1
224 1
226 1
228 1
230 1
232 1
234 1
J27 13
169 -1
177 -1
185 -1
193 -1
201 -1
209 -1
217 -1
225 1
227 1
229 1
231 1
233 1
235 1
J28 13
170 -1
178 -1
186 -1
194 -1
202 -1
210 -1
218 -1
236 1
238 1
240 1
242 1
244 1
246 1
J29 13
171 -1
179 -1
187 -1
195 -1
203 -1
211 -1
219 -1
237 1
239 1
241 1
243 1
245 1
247 1
J30 13
172 -1
180 -1
188 -1
196 -1
204 -1
212 -1
220 -1
248 1
250 1
252 1
254 1
256 1
258 1
J31 13
173 -1
181 -1
189 -1
197 -1
205 -1
213 -1
221 -1
249 1
251 1
253 1
255 1
257 1
259 1
J32 13
174 -1
182 -1
190 -1
198 -1
206 -1
214 -1
222 -1
260 1
262 1
264 1
266 1
268 1
270 1
J33 13
175 -1
183 -1
191 -1
199 -1
207 -1
215 -1
223 -1
261 1
263 1
265 1
267 1
269 1
271 1
J34 11
0 1
2 1
4 1
6 1
8 1
10 1
12 1
224 -1
236 -1
248 -1
260 -1
J35 11
1 1
3 1
5 1
7 1
9 1
11 1
13 1
225 -1
237 -1
249 -1
261 -1
J36 11
14 1
16 1
18 1
20 1
22 1
24 1
26 1
226 -1
238 -1
250 -1
262 -1
J37 11
15 1
17 1
19 1
21 1
23 1
25 1
27 1
227 -1
239 -1
251 -1
263 -1
J38 11
28 1
30 1
32 1
34 1
36 1
38 1
40 1
228 -1
240 -1
252 -1
264 -1
J39 11
29 1
31 1
33 1
35 1
37 1
39 1
41 1
229 -1
241 -1
253 -1
265 -1
J40 11
42 1
44 1
46 1
48 1
50 1
52 1
54 1
230 -1
242 -1
254 -1
266 -1
J41 11
43 1
45 1
47 1
49 1
51 1
53 1
55 1
231 -1
243 -1
255 -1
267 -1
J42 11
56 1
58 1
60 1
62 1
64 1
66 1
68 1
232 -1
244 -1
256 -1
268 -1
J43 11
57 1
59 1
61 1
63 1
65 1
67 1
69 1
233 -1
245 -1
257 -1
269 -1
J44 11
70 1
72 1
74 1
76 1
78 1
80 1
82 1
234 -1
246 -1
258 -1
270 -1
J45 11
71 1
73 1
75 1
77 1
79 1
81 1
83 1
235 -1
247 -1
259 -1
271 -1
J46 6
0 -1
14 -1
28 -1
42 -1
56 -1
70 -1
J47 7
1 -1
15 -1
29 -1
43 -1
57 -1
71 -1
278 -1
J48 6
2 -1
16 -1
30 -1
44 -1
58 -1
72 -1
J49 7
3 -1
17 -1
31 -1
45 -1
59 -1
73 -1
279 -1
J50 6
4 -1
18 -1
32 -1
46 -1
60 -1
74 -1
J51 7
5 -1
19 -1
33 -1
47 -1
61 -1
75 -1
280 -1
J52 6
6 -1
20 -1
34 -1
48 -1
62 -1
76 -1
J53 7
7 -1
21 -1
35 -1
49 -1
63 -1
77 -1
281 -1
J54 6
8 -1
22 -1
36 -1
50 -1
64 -1
78 -1
J55 7
9 -1
23 -1
37 -1
51 -1
65 -1
79 -1
282 -1
J56 6
10 -1
24 -1
38 -1
52 -1
66 -1
80 -1
J57 7
11 -1
25 -1
39 -1
53 -1
67 -1
81 -1
283 -1
J58 6
12 -1
26 -1
40 -1
54 -1
68 -1
82 -1
J59 7
13 -1
27 -1
41 -1
55 -1
69 -1
83 -1
284 -1
J60 7
278 1
279 1
280 1
281 1
282 1
283 1
284 1
J61 6
272 -1
273 -1
274 -1
275 -1
276 -1
277 -1
J62 12
84 1
85 1
98 1
99 1
112 1
113 1
126 1
127 1
140 1
141 1
154 1
155 1
J63 12
86 1
87 1
100 1
101 1
114 1
115 1
128 1
129 1
142 1
143 1
156 1
157 1
J64 12
88 1
89 1
102 1
103 1
116 1
117 1
130 1
131 1
144 1
145 1
158 1
159 1
J65 12
90 1
91 1
104 1
105 1
118 1
119 1
132 1
133 1
146 1
147 1
160 1
161 1
J66 12
92 1
93 1
106 1
107 1
120 1
121 1
134 1
135 1
148 1
149 1
162 1
163 1
J67 12
94 1
95 1
108 1
109 1
122 1
123 1
136 1
137 1
150 1
151 1
164 1
165 1
J68 12
96 1
97 1
110 1
111 1
124 1
125 1
138 1
139 1
152 1
153 1
166 1
167 1
J69 14
168 1
169 1
176 1
177 1
184 1
185 1
192 1
193 1
200 1
201 1
208 1
209 1
216 1
217 1
J70 14
170 1
171 1
178 1
179 1
186 1
187 1
194 1
195 1
202 1
203 1
210 1
211 1
218 1
219 1
J71 14
172 1
173 1
180 1
181 1
188 1
189 1
196 1
197 1
204 1
205 1
212 1
213 1
220 1
221 1
J72 14
174 1
175 1
182 1
183 1
190 1
191 1
198 1
199 1
206 1
207 1
214 1
215 1
222 1
223 1
J73 8
224 1
225 1
236 1
237 1
248 1
249 1
260 1
261 1
J74 8
226 1
227 1
238 1
239 1
250 1
251 1
262 1
263 1
J75 8
228 1
229 1
240 1
241 1
252 1
253 1
264 1
265 1
J76 8
230 1
231 1
242 1
243 1
254 1
255 1
266 1
267 1
J77 8
232 1
233 1
244 1
245 1
256 1
257 1
268 1
269 1
J78 8
234 1
235 1
246 1
247 1
258 1
259 1
270 1
271 1
J79 12
0 1
1 1
14 1
15 1
28 1
29 1
42 1
43 1
56 1
57 1
70 1
71 1
J80 12
2 1
3 1
16 1
17 1
30 1
31 1
44 1
45 1
58 1
59 1
72 1
73 1
J81 12
4 1
5 1
18 1
19 1
32 1
33 1
46 1
47 1
60 1
61 1
74 1
75 1
J82 12
6 1
7 1
20 1
21 1
34 1
35 1
48 1
49 1
62 1
63 1
76 1
77 1
J83 12
8 1
9 1
22 1
23 1
36 1
37 1
50 1
51 1
64 1
65 1
78 1
79 1
J84 12
10 1
11 1
24 1
25 1
38 1
39 1
52 1
53 1
66 1
67 1
80 1
81 1
J85 12
12 1
13 1
26 1
27 1
40 1
41 1
54 1
55 1
68 1
69 1
82 1
83 1
J86 14
84 1
85 1
86 1
87 1
88 1
89 1
90 1
91 1
92 1
93 1
94 1
95 1
96 1
97 1
J87 14
98 1
99 1
100 1
101 1
102 1
103 1
104 1
105 1
106 1
107 1
108 1
109 1
110 1
111 1
J88 14
112 1
113 1
114 1
115 1
116 1
117 1
118 1
119 1
120 1
121 1
122 1
123 1
124 1
125 1
J89 14
126 1
127 1
128 1
129 1
130 1
131 1
132 1
133 1
134 1
135 1
136 1
137 1
138 1
139 1
J90 14
140 1
141 1
142 1
143 1
144 1
145 1
146 1
147 1
148 1
149 1
150 1
151 1
152 1
153 1
J91 14
154 1
155 1
156 1
157 1
158 1
159 1
160 1
161 1
162 1
163 1
164 1
165 1
166 1
167 1
J92 8
168 1
169 1
170 1
171 1
172 1
173 1
174 1
175 1
J93 8
176 1
177 1
178 1
179 1
180 1
181 1
182 1
183 1
J94 8
184 1
185 1
186 1
187 1
188 1
189 1
190 1
191 1
J95 8
192 1
193 1
194 1
195 1
196 1
197 1
198 1
199 1
J96 8
200 1
201 1
202 1
203 1
204 1
205 1
206 1
207 1
J97 8
208 1
209 1
210 1
211 1
212 1
213 1
214 1
215 1
J98 8
216 1
217 1
218 1
219 1
220 1
221 1
222 1
223 1
J99 12
224 1
225 1
226 1
227 1
228 1
229 1
230 1
231 1
232 1
233 1
234 1
235 1
J100 12
236 1
237 1
238 1
239 1
240 1
241 1
242 1
243 1
244 1
245 1
246 1
247 1
J101 12
248 1
249 1
250 1
251 1
252 1
253 1
254 1
255 1
256 1
257 1
258 1
259 1
J102 12
260 1
261 1
262 1
263 1
264 1
265 1
266 1
267 1
268 1
269 1
270 1
271 1
J103 14
0 1
1 1
2 1
3 1
4 1
5 1
6 1
7 1
8 1
9 1
10 1
11 1
12 1
13 1
J104 14
14 1
15 1
16 1
17 1
18 1
19 1
20 1
21 1
22 1
23 1
24 1
25 1
26 1
27 1
J105 14
28 1
29 1
30 1
31 1
32 1
33 1
34 1
35 1
36 1
37 1
38 1
39 1
40 1
41 1
J106 14
42 1
43 1
44 1
45 1
46 1
47 1
48 1
49 1
50 1
51 1
52 1
53 1
54 1
55 1
J107 14
56 1
57 1
58 1
59 1
60 1
61 1
62 1
63 1
64 1
65 1
66 1
67 1
68 1
69 1
J108 14
70 1
71 1
72 1
73 1
74 1
75 1
76 1
77 1
78 1
79 1
80 1
81 1
82 1
83 1
G0 272
0 52
1 52
2 57
3 57
4 48
5 48
6 51
7 51
8 35
9 35
10 59
11 59
12 34
13 34
14 33
15 33
16 22
17 22
18 69
19 69
20 16
21 16
22 66
23 66
24 45
25 45
26 54
27 54
28 29
29 29
30 74
31 74
32 17
33 17
34 25
35 25
36 23
37 23
38 85
39 85
40 96
41 96
42 24
43 24
44 75
45 75
46 41
47 41
48 96
49 96
50 72
51 72
52 95
53 95
54 60
55 60
56 34
57 34
58 67
59 67
60 72
61 72
62 71
63 71
64 31
65 31
66 67
67 67
68 67
69 67
70 95
71 95
72 58
73 58
74 61
75 61
76 51
77 51
78 79
79 79
80 24
81 24
82 63
83 63
84 28
85 28
86 57
87 57
88 89
89 89
90 12
91 12
92 29
93 29
94 33
95 33
96 63
97 63
98 42
99 42
100 33
101 33
102 84
103 84
104 81
105 81
106 45
107 45
108 47
109 47
110 93
111 93
112 98
113 98
114 34
115 34
116 27
117 27
118 91
119 91
120 75
121 75
122 63
123 63
124 44
125 44
126 89
127 89
128 70
129 70
130 50
131 50
132 42
133 42
134 77
135 77
136 42
137 42
138 23
139 23
140 30
141 30
142 57
143 57
144 29
145 29
146 17
147 17
148 16
149 16
150 76
151 76
152 26
153 26
154 42
155 42
156 57
157 57
158 85
159 85
160 68
161 68
162 95
163 95
164 31
165 31
166 39
167 39
168 47
169 47
170 60
171 60
172 63
173 63
174 17
175 17
176 36
177 36
178 36
179 36
180 30
181 30
182 39
183 39
184 37
185 37
186 73
187 73
188 78
189 78
190 70
191 70
192 57
193 57
194 28
195 28
196 13
197 13
198 44
199 44
200 73
201 73
202 58
203 58
204 26
205 26
206 53
207 53
208 39
209 39
210 55
211 55
212 15
213 15
214 46
215 46
216 33
217 33
218 55
219 55
220 62
221 62
222 69
223 69
224 72
225 72
226 94
227 94
228 41
229 41
230 96
231 96
232 42
233 42
234 76
235 76
236 27
237 27
238 34
239 34
240 63
241 63
242 67
243 67
244 76
245 76
246 55
247 55
248 33
249 33
250 41
251 41
252 56
253 56
254 95
255 95
256 32
257 32
258 75
259 75
260 36
261 36
262 11
263 11
264 99
265 99
266 26
267 26
268 42
269 42
270 18
271 18
